100 4122
357 750 801 948 354 873 507 732 294 546 423 66 300 201 456 501 117 681 186 825 435 255 300 504 402 54 447 672 522 57 573 825 69 495 837 141 969 375 15 876 852 255 81 939 867 108 300 549 750 9 831 762 522 708 747 723 867 651 537 738 39 798 483 174 339 645 480 141 804 471 600 654 402 981 534 921 303 285 351 129 474 951 549 906 114 645 315 294 708 960 537 510 138 789 555 894 936 48 834 909 
357 750 799 947 353 872 505 731 294 546 422 66 298 201 454 499 117 681 186 825 433 254 299 503 400 54 447 671 521 56 572 823 67 494 835 140 968 374 14 875 851 253 81 938 866 106 300 548 748 9 830 762 522 708 747 721 866 651 535 738 39 797 481 173 338 644 480 141 804 469 600 654 400 981 534 921 301 284 351 127 474 949 549 905 112 644 313 294 707 958 537 509 137 788 555 894 936 47 832 908 
